data/CPAIOR-23/opt-cryptoanalysis/mznc2017_aes_opt_r2.fzn
predicate fzn_table_int(array [int] of var int: x,array [int,int] of int: t);
array [1..873] of int: X_INTRODUCED_0_ = [0,0,0,0,0,0,0,0,0,0,0,0,1,0,0,1,1,2,0,0,0,1,0,1,1,1,2,0,0,0,1,1,0,0,1,2,0,0,0,1,1,1,0,1,2,0,0,1,0,0,0,1,1,3,0,0,1,0,0,1,0,1,2,0,0,1,0,0,1,1,0,3,0,0,1,0,1,0,1,0,3,0,0,1,0,1,1,0,0,3,0,0,1,0,1,1,0,1,3,0,0,1,0,1,1,1,0,3,0,0,1,1,0,0,0,1,3,0,0,1,1,0,0,1,1,3,0,0,1,1,0,1,0,0,3,0,0,1,1,0,1,1,0,2,0,0,1,1,0,1,1,1,3,0,0,1,1,1,0,1,0,3,0,0,1,1,1,0,1,1,3,0,1,0,0,0,1,0,1,2,0,1,0,0,0,1,1,0,3,0,1,0,0,0,1,1,1,3,0,1,0,0,1,0,0,1,3,0,1,0,0,1,0,1,0,3,0,1,0,0,1,1,0,0,3,0,1,0,0,1,1,1,0,3,0,1,0,1,0,0,0,1,3,0,1,0,1,0,1,0,0,3,0,1,0,1,1,0,0,1,3,0,1,0,1,1,0,1,0,3,0,1,0,1,1,0,1,1,3,0,1,0,1,1,1,0,0,2,0,1,0,1,1,1,0,1,3,0,1,1,0,0,0,1,0,3,0,1,1,0,0,1,1,0,3,0,1,1,0,1,0,0,0,3,0,1,1,0,1,0,1,1,2,0,1,1,0,1,1,0,0,3,0,1,1,0,1,1,1,1,2,0,1,1,1,0,0,0,1,2,0,1,1,1,0,0,1,0,3,0,1,1,1,0,1,1,0,3,0,1,1,1,1,0,0,0,3,0,1,1,1,1,1,0,0,3,0,1,1,1,1,1,1,1,2,1,0,0,0,0,0,1,1,3,1,0,0,0,0,1,1,1,3,1,0,0,0,1,0,0,1,3,1,0,0,0,1,0,1,1,2,1,0,0,0,1,1,0,1,3,1,0,0,0,1,1,1,1,2,1,0,0,1,0,0,1,0,3,1,0,0,1,0,1,0,0,2,1,0,0,1,0,1,1,0,3,1,0,0,1,1,0,0,0,3,1,0,0,1,1,1,0,0,3,1,0,0,1,1,1,1,0,2,1,0,1,0,0,0,1,0,3,1,0,1,0,0,0,1,1,3,1,0,1,0,0,1,0,1,2,1,0,1,0,1,0,0,0,3,1,0,1,0,1,0,1,0,3,1,0,1,0,1,1,0,1,3,1,0,1,0,1,1,1,0,3,1,0,1,1,0,0,0,1,3,1,0,1,1,0,1,0,0,3,1,0,1,1,1,0,0,0,2,1,0,1,1,1,0,0,1,3,1,0,1,1,1,0,1,0,3,1,0,1,1,1,0,1,1,3,1,0,1,1,1,1,0,1,3,1,1,0,0,0,0,1,0,3,1,1,0,0,0,1,0,1,2,1,1,0,0,0,1,1,1,3,1,1,0,0,1,0,0,0,3,1,1,0,0,1,0,0,1,3,1,1,0,0,1,0,1,0,3,1,1,0,0,1,1,1,0,3,1,1,0,1,0,0,0,1,3,1,1,0,1,0,0,1,0,2,1,1,0,1,0,0,1,1,3,1,1,0,1,0,1,0,0,3,1,1,0,1,0,1,1,1,3,1,1,0,1,1,0,1,0,3,1,1,0,1,1,0,1,1,3,1,1,1,0,0,0,1,0,3,1,1,1,0,0,0,1,1,3,1,1,1,0,0,1,1,0,3,1,1,1,0,0,1,1,1,3,1,1,1,0,1,0,0,0,3,1,1,1,0,1,0,0,1,3,1,1,1,0,1,1,0,0,3,1,1,1,0,1,1,0,1,3,1,1,1,1,0,0,0,1,2,1,1,1,1,0,1,0,0,2,1,1,1,1,1,1,1,0,2,1,1,1,1,1,1,1,1,2];
array [1..33] of int: X_INTRODUCED_393_ = [1,-1,-1,-1,-1,-1,-1,-1,-1,-1,-1,-1,-1,-1,-1,-1,-1,-1,-1,-1,-1,-1,-1,-1,-1,-1,-1,-1,-1,-1,-1,-1,-1];
var 0..1: X_INTRODUCED_2_;
var 0..1: X_INTRODUCED_3_;
var 0..1: X_INTRODUCED_4_;
var 0..1: X_INTRODUCED_5_;
var 0..1: X_INTRODUCED_6_;
var 0..1: X_INTRODUCED_7_;
var 0..1: X_INTRODUCED_8_;
var 0..1: X_INTRODUCED_9_;
var 0..1: X_INTRODUCED_10_;
var 0..1: X_INTRODUCED_11_;
var 0..1: X_INTRODUCED_12_;
var 0..1: X_INTRODUCED_13_;
var 0..1: X_INTRODUCED_14_;
var 0..1: X_INTRODUCED_15_;
var 0..1: X_INTRODUCED_16_;
var 0..1: X_INTRODUCED_17_;
var 0..1: X_INTRODUCED_18_;
var 0..1: X_INTRODUCED_19_;
var 0..1: X_INTRODUCED_20_;
var 0..1: X_INTRODUCED_21_;
var 0..1: X_INTRODUCED_22_;
var 0..1: X_INTRODUCED_23_;
var 0..1: X_INTRODUCED_24_;
var 0..1: X_INTRODUCED_25_;
var 0..1: X_INTRODUCED_26_;
var 0..1: X_INTRODUCED_27_;
var 0..1: X_INTRODUCED_28_;
var 0..1: X_INTRODUCED_29_;
var 0..1: X_INTRODUCED_30_;
var 0..1: X_INTRODUCED_31_;
var 0..1: X_INTRODUCED_32_;
var 0..1: X_INTRODUCED_33_;
var 0..1: X_INTRODUCED_34_;
var 0..1: X_INTRODUCED_35_;
var 0..1: X_INTRODUCED_36_;
var 0..1: X_INTRODUCED_37_;
var 0..1: X_INTRODUCED_38_;
var 0..1: X_INTRODUCED_39_;
var 0..1: X_INTRODUCED_40_;
var 0..1: X_INTRODUCED_41_;
var 0..1: X_INTRODUCED_42_;
var 0..1: X_INTRODUCED_43_;
var 0..1: X_INTRODUCED_44_;
var 0..1: X_INTRODUCED_45_;
var 0..1: X_INTRODUCED_46_;
var 0..1: X_INTRODUCED_47_;
var 0..1: X_INTRODUCED_48_;
var 0..1: X_INTRODUCED_49_;
var 0..1: X_INTRODUCED_50_;
var 0..1: X_INTRODUCED_51_;
var 0..1: X_INTRODUCED_52_;
var 0..1: X_INTRODUCED_53_;
var 0..1: X_INTRODUCED_54_;
var 0..1: X_INTRODUCED_55_;
var 0..1: X_INTRODUCED_56_;
var 0..1: X_INTRODUCED_57_;
var 0..1: X_INTRODUCED_58_;
var 0..1: X_INTRODUCED_59_;
var 0..1: X_INTRODUCED_60_;
var 0..1: X_INTRODUCED_61_;
var 0..1: X_INTRODUCED_62_;
var 0..1: X_INTRODUCED_63_;
var 0..1: X_INTRODUCED_64_;
var 0..1: X_INTRODUCED_65_;
var 0..1: X_INTRODUCED_66_;
var 0..1: X_INTRODUCED_67_;
var 0..1: X_INTRODUCED_68_;
var 0..1: X_INTRODUCED_69_;
var 0..1: X_INTRODUCED_70_;
var 0..1: X_INTRODUCED_71_;
var 0..1: X_INTRODUCED_72_;
var 0..1: X_INTRODUCED_73_;
var 0..1: X_INTRODUCED_74_;
var 0..1: X_INTRODUCED_75_;
var 0..1: X_INTRODUCED_76_;
var 0..1: X_INTRODUCED_77_;
var 0..1: X_INTRODUCED_78_;
var 0..1: X_INTRODUCED_79_;
var 0..1: X_INTRODUCED_80_;
var 0..1: X_INTRODUCED_81_;
var 0..1: X_INTRODUCED_82_;
var 0..1: X_INTRODUCED_83_;
var 0..1: X_INTRODUCED_84_;
var 0..1: X_INTRODUCED_85_;
var 0..1: X_INTRODUCED_86_;
var 0..1: X_INTRODUCED_87_;
var 0..1: X_INTRODUCED_88_;
var 0..1: X_INTRODUCED_89_;
var 0..1: X_INTRODUCED_90_;
var 0..1: X_INTRODUCED_91_;
var 0..1: X_INTRODUCED_92_;
var 0..1: X_INTRODUCED_93_;
var 0..1: X_INTRODUCED_94_;
var 0..1: X_INTRODUCED_95_;
var 0..1: X_INTRODUCED_96_;
var 0..1: X_INTRODUCED_97_;
var 0..1: X_INTRODUCED_98_;
var 0..1: X_INTRODUCED_99_;
var 0..1: X_INTRODUCED_100_;
var 0..1: X_INTRODUCED_101_;
var 0..1: X_INTRODUCED_102_;
var 0..1: X_INTRODUCED_103_;
var 0..1: X_INTRODUCED_104_;
var 0..1: X_INTRODUCED_105_;
var 0..1: X_INTRODUCED_106_;
var 0..1: X_INTRODUCED_107_;
var 0..1: X_INTRODUCED_108_;
var 0..1: X_INTRODUCED_109_;
var 0..1: X_INTRODUCED_110_;
var 0..1: X_INTRODUCED_111_;
var 0..1: X_INTRODUCED_112_;
var 0..1: X_INTRODUCED_113_;
var 0..1: X_INTRODUCED_114_;
var 0..1: X_INTRODUCED_115_;
var 0..1: X_INTRODUCED_116_;
var 0..1: X_INTRODUCED_117_;
var 0..1: X_INTRODUCED_118_;
var 0..1: X_INTRODUCED_119_;
var 0..1: X_INTRODUCED_120_;
var 0..1: X_INTRODUCED_121_;
var 0..1: X_INTRODUCED_122_;
var 0..1: X_INTRODUCED_123_;
var 0..1: X_INTRODUCED_124_;
var 0..1: X_INTRODUCED_125_;
var 0..1: X_INTRODUCED_126_;
var 0..1: X_INTRODUCED_127_;
var 0..1: X_INTRODUCED_128_;
var 0..1: X_INTRODUCED_129_;
var 0..1: X_INTRODUCED_130_;
var 0..1: X_INTRODUCED_131_;
var 0..1: X_INTRODUCED_132_;
var 0..1: X_INTRODUCED_133_;
var 0..1: X_INTRODUCED_134_;
var 0..1: X_INTRODUCED_135_;
var 0..1: X_INTRODUCED_136_;
var 0..1: X_INTRODUCED_137_;
var 0..1: X_INTRODUCED_138_;
var 0..1: X_INTRODUCED_139_;
var 0..1: X_INTRODUCED_140_;
var 0..1: X_INTRODUCED_141_;
var 0..1: X_INTRODUCED_142_;
var 0..1: X_INTRODUCED_143_;
var 0..1: X_INTRODUCED_144_;
var 0..1: X_INTRODUCED_145_;
var 0..1: X_INTRODUCED_146_;
var 0..1: X_INTRODUCED_147_;
var 0..1: X_INTRODUCED_148_;
var 0..1: X_INTRODUCED_149_;
var 0..1: X_INTRODUCED_150_;
var 0..1: X_INTRODUCED_151_;
var 0..1: X_INTRODUCED_152_;
var 0..1: X_INTRODUCED_153_;
var 0..1: X_INTRODUCED_154_;
var 0..1: X_INTRODUCED_155_;
var 0..1: X_INTRODUCED_156_;
var 0..1: X_INTRODUCED_157_;
var 0..1: X_INTRODUCED_158_;
var 0..1: X_INTRODUCED_159_;
var 0..1: X_INTRODUCED_160_;
var 0..1: X_INTRODUCED_161_;
var 0..1: X_INTRODUCED_162_;
var 0..1: X_INTRODUCED_163_;
var 0..1: X_INTRODUCED_164_;
var 0..1: X_INTRODUCED_165_;
var 0..1: X_INTRODUCED_166_;
var 0..1: X_INTRODUCED_167_;
var 0..1: X_INTRODUCED_168_;
var 0..1: X_INTRODUCED_169_;
var 0..1: X_INTRODUCED_170_;
var 0..1: X_INTRODUCED_171_;
var 0..1: X_INTRODUCED_172_;
var 0..1: X_INTRODUCED_173_;
var 0..1: X_INTRODUCED_174_;
var 0..1: X_INTRODUCED_175_;
var 0..1: X_INTRODUCED_176_;
var 0..1: X_INTRODUCED_177_;
var 0..1: X_INTRODUCED_178_;
var 0..1: X_INTRODUCED_179_;
var 0..1: X_INTRODUCED_180_;
var 0..1: X_INTRODUCED_181_;
var 0..1: X_INTRODUCED_182_;
var 0..1: X_INTRODUCED_183_;
var 0..1: X_INTRODUCED_184_;
var 0..1: X_INTRODUCED_185_;
var 0..1: X_INTRODUCED_186_;
var 0..1: X_INTRODUCED_187_;
var 0..1: X_INTRODUCED_188_;
var 0..1: X_INTRODUCED_189_;
var 0..1: X_INTRODUCED_190_;
var 0..1: X_INTRODUCED_191_;
var 0..1: X_INTRODUCED_192_;
var 0..1: X_INTRODUCED_193_;
var {0,2}: X_INTRODUCED_322_;
var {0,2}: X_INTRODUCED_323_;
var {0,2}: X_INTRODUCED_324_;
var {0,2}: X_INTRODUCED_325_;
var {0,2}: X_INTRODUCED_326_;
var {0,2}: X_INTRODUCED_327_;
var {0,2}: X_INTRODUCED_328_;
var {0,2}: X_INTRODUCED_329_;
var {0,2}: X_INTRODUCED_330_;
var {0,2}: X_INTRODUCED_331_;
var {0,2}: X_INTRODUCED_332_;
var {0,2}: X_INTRODUCED_333_;
var {0,2}: X_INTRODUCED_334_;
var {0,2}: X_INTRODUCED_335_;
var {0,2}: X_INTRODUCED_336_;
var {0,2}: X_INTRODUCED_337_;
var {0,2}: X_INTRODUCED_338_;
var {0,2}: X_INTRODUCED_339_;
var {0,2}: X_INTRODUCED_340_;
var {0,2}: X_INTRODUCED_341_;
var {0,2}: X_INTRODUCED_342_;
var {0,2}: X_INTRODUCED_343_;
var {0,2}: X_INTRODUCED_344_;
var {0,2}: X_INTRODUCED_345_;
var {0,2}: X_INTRODUCED_346_;
var {0,2}: X_INTRODUCED_347_;
var {0,2}: X_INTRODUCED_348_;
var {0,2}: X_INTRODUCED_349_;
var {0,2}: X_INTRODUCED_350_;
var {0,2}: X_INTRODUCED_351_;
var {0,2}: X_INTRODUCED_352_;
var {0,2}: X_INTRODUCED_353_;
var 1..64: objective:: output_var:: is_defined_var;
array [1..192] of var int: x:: output_array([0..2,0..63]) = [X_INTRODUCED_2_,X_INTRODUCED_3_,X_INTRODUCED_4_,X_INTRODUCED_5_,X_INTRODUCED_6_,X_INTRODUCED_7_,X_INTRODUCED_8_,X_INTRODUCED_9_,X_INTRODUCED_10_,X_INTRODUCED_11_,X_INTRODUCED_12_,X_INTRODUCED_13_,X_INTRODUCED_14_,X_INTRODUCED_15_,X_INTRODUCED_16_,X_INTRODUCED_17_,X_INTRODUCED_18_,X_INTRODUCED_19_,X_INTRODUCED_20_,X_INTRODUCED_21_,X_INTRODUCED_22_,X_INTRODUCED_23_,X_INTRODUCED_24_,X_INTRODUCED_25_,X_INTRODUCED_26_,X_INTRODUCED_27_,X_INTRODUCED_28_,X_INTRODUCED_29_,X_INTRODUCED_30_,X_INTRODUCED_31_,X_INTRODUCED_32_,X_INTRODUCED_33_,X_INTRODUCED_34_,X_INTRODUCED_35_,X_INTRODUCED_36_,X_INTRODUCED_37_,X_INTRODUCED_38_,X_INTRODUCED_39_,X_INTRODUCED_40_,X_INTRODUCED_41_,X_INTRODUCED_42_,X_INTRODUCED_43_,X_INTRODUCED_44_,X_INTRODUCED_45_,X_INTRODUCED_46_,X_INTRODUCED_47_,X_INTRODUCED_48_,X_INTRODUCED_49_,X_INTRODUCED_50_,X_INTRODUCED_51_,X_INTRODUCED_52_,X_INTRODUCED_53_,X_INTRODUCED_54_,X_INTRODUCED_55_,X_INTRODUCED_56_,X_INTRODUCED_57_,X_INTRODUCED_58_,X_INTRODUCED_59_,X_INTRODUCED_60_,X_INTRODUCED_61_,X_INTRODUCED_62_,X_INTRODUCED_63_,X_INTRODUCED_64_,X_INTRODUCED_65_,X_INTRODUCED_66_,X_INTRODUCED_67_,X_INTRODUCED_68_,X_INTRODUCED_69_,X_INTRODUCED_70_,X_INTRODUCED_71_,X_INTRODUCED_72_,X_INTRODUCED_73_,X_INTRODUCED_74_,X_INTRODUCED_75_,X_INTRODUCED_76_,X_INTRODUCED_77_,X_INTRODUCED_78_,X_INTRODUCED_79_,X_INTRODUCED_80_,X_INTRODUCED_81_,X_INTRODUCED_82_,X_INTRODUCED_83_,X_INTRODUCED_84_,X_INTRODUCED_85_,X_INTRODUCED_86_,X_INTRODUCED_87_,X_INTRODUCED_88_,X_INTRODUCED_89_,X_INTRODUCED_90_,X_INTRODUCED_91_,X_INTRODUCED_92_,X_INTRODUCED_93_,X_INTRODUCED_94_,X_INTRODUCED_95_,X_INTRODUCED_96_,X_INTRODUCED_97_,X_INTRODUCED_98_,X_INTRODUCED_99_,X_INTRODUCED_100_,X_INTRODUCED_101_,X_INTRODUCED_102_,X_INTRODUCED_103_,X_INTRODUCED_104_,X_INTRODUCED_105_,X_INTRODUCED_106_,X_INTRODUCED_107_,X_INTRODUCED_108_,X_INTRODUCED_109_,X_INTRODUCED_110_,X_INTRODUCED_111_,X_INTRODUCED_112_,X_INTRODUCED_113_,X_INTRODUCED_114_,X_INTRODUCED_115_,X_INTRODUCED_116_,X_INTRODUCED_117_,X_INTRODUCED_118_,X_INTRODUCED_119_,X_INTRODUCED_120_,X_INTRODUCED_121_,X_INTRODUCED_122_,X_INTRODUCED_123_,X_INTRODUCED_124_,X_INTRODUCED_125_,X_INTRODUCED_126_,X_INTRODUCED_127_,X_INTRODUCED_128_,X_INTRODUCED_129_,X_INTRODUCED_130_,X_INTRODUCED_131_,X_INTRODUCED_132_,X_INTRODUCED_133_,X_INTRODUCED_134_,X_INTRODUCED_135_,X_INTRODUCED_136_,X_INTRODUCED_137_,X_INTRODUCED_138_,X_INTRODUCED_139_,X_INTRODUCED_140_,X_INTRODUCED_141_,X_INTRODUCED_142_,X_INTRODUCED_143_,X_INTRODUCED_144_,X_INTRODUCED_145_,X_INTRODUCED_146_,X_INTRODUCED_147_,X_INTRODUCED_148_,X_INTRODUCED_149_,X_INTRODUCED_150_,X_INTRODUCED_151_,X_INTRODUCED_152_,X_INTRODUCED_153_,X_INTRODUCED_154_,X_INTRODUCED_155_,X_INTRODUCED_156_,X_INTRODUCED_157_,X_INTRODUCED_158_,X_INTRODUCED_159_,X_INTRODUCED_160_,X_INTRODUCED_161_,X_INTRODUCED_162_,X_INTRODUCED_163_,X_INTRODUCED_164_,X_INTRODUCED_165_,X_INTRODUCED_166_,X_INTRODUCED_167_,X_INTRODUCED_168_,X_INTRODUCED_169_,X_INTRODUCED_170_,X_INTRODUCED_171_,X_INTRODUCED_172_,X_INTRODUCED_173_,X_INTRODUCED_174_,X_INTRODUCED_175_,X_INTRODUCED_176_,X_INTRODUCED_177_,X_INTRODUCED_178_,X_INTRODUCED_179_,X_INTRODUCED_180_,X_INTRODUCED_181_,X_INTRODUCED_182_,X_INTRODUCED_183_,X_INTRODUCED_184_,X_INTRODUCED_185_,X_INTRODUCED_186_,X_INTRODUCED_187_,X_INTRODUCED_188_,X_INTRODUCED_189_,X_INTRODUCED_190_,X_INTRODUCED_191_,X_INTRODUCED_192_,X_INTRODUCED_193_];
array [1..128] of var int: xp:: output_array([0..1,0..63]) = [X_INTRODUCED_2_,X_INTRODUCED_6_,X_INTRODUCED_10_,X_INTRODUCED_14_,X_INTRODUCED_18_,X_INTRODUCED_22_,X_INTRODUCED_26_,X_INTRODUCED_30_,X_INTRODUCED_34_,X_INTRODUCED_38_,X_INTRODUCED_42_,X_INTRODUCED_46_,X_INTRODUCED_50_,X_INTRODUCED_54_,X_INTRODUCED_58_,X_INTRODUCED_62_,X_INTRODUCED_3_,X_INTRODUCED_7_,X_INTRODUCED_11_,X_INTRODUCED_15_,X_INTRODUCED_19_,X_INTRODUCED_23_,X_INTRODUCED_27_,X_INTRODUCED_31_,X_INTRODUCED_35_,X_INTRODUCED_39_,X_INTRODUCED_43_,X_INTRODUCED_47_,X_INTRODUCED_51_,X_INTRODUCED_55_,X_INTRODUCED_59_,X_INTRODUCED_63_,X_INTRODUCED_4_,X_INTRODUCED_8_,X_INTRODUCED_12_,X_INTRODUCED_16_,X_INTRODUCED_20_,X_INTRODUCED_24_,X_INTRODUCED_28_,X_INTRODUCED_32_,X_INTRODUCED_36_,X_INTRODUCED_40_,X_INTRODUCED_44_,X_INTRODUCED_48_,X_INTRODUCED_52_,X_INTRODUCED_56_,X_INTRODUCED_60_,X_INTRODUCED_64_,X_INTRODUCED_5_,X_INTRODUCED_9_,X_INTRODUCED_13_,X_INTRODUCED_17_,X_INTRODUCED_21_,X_INTRODUCED_25_,X_INTRODUCED_29_,X_INTRODUCED_33_,X_INTRODUCED_37_,X_INTRODUCED_41_,X_INTRODUCED_45_,X_INTRODUCED_49_,X_INTRODUCED_53_,X_INTRODUCED_57_,X_INTRODUCED_61_,X_INTRODUCED_65_,X_INTRODUCED_66_,X_INTRODUCED_70_,X_INTRODUCED_74_,X_INTRODUCED_78_,X_INTRODUCED_82_,X_INTRODUCED_86_,X_INTRODUCED_90_,X_INTRODUCED_94_,X_INTRODUCED_98_,X_INTRODUCED_102_,X_INTRODUCED_106_,X_INTRODUCED_110_,X_INTRODUCED_114_,X_INTRODUCED_118_,X_INTRODUCED_122_,X_INTRODUCED_126_,X_INTRODUCED_67_,X_INTRODUCED_71_,X_INTRODUCED_75_,X_INTRODUCED_79_,X_INTRODUCED_83_,X_INTRODUCED_87_,X_INTRODUCED_91_,X_INTRODUCED_95_,X_INTRODUCED_99_,X_INTRODUCED_103_,X_INTRODUCED_107_,X_INTRODUCED_111_,X_INTRODUCED_115_,X_INTRODUCED_119_,X_INTRODUCED_123_,X_INTRODUCED_127_,X_INTRODUCED_68_,X_INTRODUCED_72_,X_INTRODUCED_76_,X_INTRODUCED_80_,X_INTRODUCED_84_,X_INTRODUCED_88_,X_INTRODUCED_92_,X_INTRODUCED_96_,X_INTRODUCED_100_,X_INTRODUCED_104_,X_INTRODUCED_108_,X_INTRODUCED_112_,X_INTRODUCED_116_,X_INTRODUCED_120_,X_INTRODUCED_124_,X_INTRODUCED_128_,X_INTRODUCED_69_,X_INTRODUCED_73_,X_INTRODUCED_77_,X_INTRODUCED_81_,X_INTRODUCED_85_,X_INTRODUCED_89_,X_INTRODUCED_93_,X_INTRODUCED_97_,X_INTRODUCED_101_,X_INTRODUCED_105_,X_INTRODUCED_109_,X_INTRODUCED_113_,X_INTRODUCED_117_,X_INTRODUCED_121_,X_INTRODUCED_125_,X_INTRODUCED_129_];
array [1..32] of var int: prb:: output_array([0..31]) = [X_INTRODUCED_322_,X_INTRODUCED_323_,X_INTRODUCED_324_,X_INTRODUCED_325_,X_INTRODUCED_326_,X_INTRODUCED_327_,X_INTRODUCED_328_,X_INTRODUCED_329_,X_INTRODUCED_330_,X_INTRODUCED_331_,X_INTRODUCED_332_,X_INTRODUCED_333_,X_INTRODUCED_334_,X_INTRODUCED_335_,X_INTRODUCED_336_,X_INTRODUCED_337_,X_INTRODUCED_338_,X_INTRODUCED_339_,X_INTRODUCED_340_,X_INTRODUCED_341_,X_INTRODUCED_342_,X_INTRODUCED_343_,X_INTRODUCED_344_,X_INTRODUCED_345_,X_INTRODUCED_346_,X_INTRODUCED_347_,X_INTRODUCED_348_,X_INTRODUCED_349_,X_INTRODUCED_350_,X_INTRODUCED_351_,X_INTRODUCED_352_,X_INTRODUCED_353_];
array [1..256] of var int: X_INTRODUCED_356_ ::var_is_introduced  = [X_INTRODUCED_66_,X_INTRODUCED_67_,X_INTRODUCED_68_,X_INTRODUCED_69_,X_INTRODUCED_70_,X_INTRODUCED_71_,X_INTRODUCED_72_,X_INTRODUCED_73_,X_INTRODUCED_74_,X_INTRODUCED_75_,X_INTRODUCED_76_,X_INTRODUCED_77_,X_INTRODUCED_78_,X_INTRODUCED_79_,X_INTRODUCED_80_,X_INTRODUCED_81_,X_INTRODUCED_82_,X_INTRODUCED_83_,X_INTRODUCED_84_,X_INTRODUCED_85_,X_INTRODUCED_86_,X_INTRODUCED_87_,X_INTRODUCED_88_,X_INTRODUCED_89_,X_INTRODUCED_90_,X_INTRODUCED_91_,X_INTRODUCED_92_,X_INTRODUCED_93_,X_INTRODUCED_94_,X_INTRODUCED_95_,X_INTRODUCED_96_,X_INTRODUCED_97_,X_INTRODUCED_98_,X_INTRODUCED_99_,X_INTRODUCED_100_,X_INTRODUCED_101_,X_INTRODUCED_102_,X_INTRODUCED_103_,X_INTRODUCED_104_,X_INTRODUCED_105_,X_INTRODUCED_106_,X_INTRODUCED_107_,X_INTRODUCED_108_,X_INTRODUCED_109_,X_INTRODUCED_110_,X_INTRODUCED_111_,X_INTRODUCED_112_,X_INTRODUCED_113_,X_INTRODUCED_114_,X_INTRODUCED_115_,X_INTRODUCED_116_,X_INTRODUCED_117_,X_INTRODUCED_118_,X_INTRODUCED_119_,X_INTRODUCED_120_,X_INTRODUCED_121_,X_INTRODUCED_122_,X_INTRODUCED_123_,X_INTRODUCED_124_,X_INTRODUCED_125_,X_INTRODUCED_126_,X_INTRODUCED_127_,X_INTRODUCED_128_,X_INTRODUCED_129_,X_INTRODUCED_66_,X_INTRODUCED_70_,X_INTRODUCED_74_,X_INTRODUCED_78_,X_INTRODUCED_82_,X_INTRODUCED_86_,X_INTRODUCED_90_,X_INTRODUCED_94_,X_INTRODUCED_98_,X_INTRODUCED_102_,X_INTRODUCED_106_,X_INTRODUCED_110_,X_INTRODUCED_114_,X_INTRODUCED_118_,X_INTRODUCED_122_,X_INTRODUCED_126_,X_INTRODUCED_67_,X_INTRODUCED_71_,X_INTRODUCED_75_,X_INTRODUCED_79_,X_INTRODUCED_83_,X_INTRODUCED_87_,X_INTRODUCED_91_,X_INTRODUCED_95_,X_INTRODUCED_99_,X_INTRODUCED_103_,X_INTRODUCED_107_,X_INTRODUCED_111_,X_INTRODUCED_115_,X_INTRODUCED_119_,X_INTRODUCED_123_,X_INTRODUCED_127_,X_INTRODUCED_68_,X_INTRODUCED_72_,X_INTRODUCED_76_,X_INTRODUCED_80_,X_INTRODUCED_84_,X_INTRODUCED_88_,X_INTRODUCED_92_,X_INTRODUCED_96_,X_INTRODUCED_100_,X_INTRODUCED_104_,X_INTRODUCED_108_,X_INTRODUCED_112_,X_INTRODUCED_116_,X_INTRODUCED_120_,X_INTRODUCED_124_,X_INTRODUCED_128_,X_INTRODUCED_69_,X_INTRODUCED_73_,X_INTRODUCED_77_,X_INTRODUCED_81_,X_INTRODUCED_85_,X_INTRODUCED_89_,X_INTRODUCED_93_,X_INTRODUCED_97_,X_INTRODUCED_101_,X_INTRODUCED_105_,X_INTRODUCED_109_,X_INTRODUCED_113_,X_INTRODUCED_117_,X_INTRODUCED_121_,X_INTRODUCED_125_,X_INTRODUCED_129_,X_INTRODUCED_2_,X_INTRODUCED_3_,X_INTRODUCED_4_,X_INTRODUCED_5_,X_INTRODUCED_6_,X_INTRODUCED_7_,X_INTRODUCED_8_,X_INTRODUCED_9_,X_INTRODUCED_10_,X_INTRODUCED_11_,X_INTRODUCED_12_,X_INTRODUCED_13_,X_INTRODUCED_14_,X_INTRODUCED_15_,X_INTRODUCED_16_,X_INTRODUCED_17_,X_INTRODUCED_18_,X_INTRODUCED_19_,X_INTRODUCED_20_,X_INTRODUCED_21_,X_INTRODUCED_22_,X_INTRODUCED_23_,X_INTRODUCED_24_,X_INTRODUCED_25_,X_INTRODUCED_26_,X_INTRODUCED_27_,X_INTRODUCED_28_,X_INTRODUCED_29_,X_INTRODUCED_30_,X_INTRODUCED_31_,X_INTRODUCED_32_,X_INTRODUCED_33_,X_INTRODUCED_34_,X_INTRODUCED_35_,X_INTRODUCED_36_,X_INTRODUCED_37_,X_INTRODUCED_38_,X_INTRODUCED_39_,X_INTRODUCED_40_,X_INTRODUCED_41_,X_INTRODUCED_42_,X_INTRODUCED_43_,X_INTRODUCED_44_,X_INTRODUCED_45_,X_INTRODUCED_46_,X_INTRODUCED_47_,X_INTRODUCED_48_,X_INTRODUCED_49_,X_INTRODUCED_50_,X_INTRODUCED_51_,X_INTRODUCED_52_,X_INTRODUCED_53_,X_INTRODUCED_54_,X_INTRODUCED_55_,X_INTRODUCED_56_,X_INTRODUCED_57_,X_INTRODUCED_58_,X_INTRODUCED_59_,X_INTRODUCED_60_,X_INTRODUCED_61_,X_INTRODUCED_62_,X_INTRODUCED_63_,X_INTRODUCED_64_,X_INTRODUCED_65_,X_INTRODUCED_2_,X_INTRODUCED_6_,X_INTRODUCED_10_,X_INTRODUCED_14_,X_INTRODUCED_18_,X_INTRODUCED_22_,X_INTRODUCED_26_,X_INTRODUCED_30_,X_INTRODUCED_34_,X_INTRODUCED_38_,X_INTRODUCED_42_,X_INTRODUCED_46_,X_INTRODUCED_50_,X_INTRODUCED_54_,X_INTRODUCED_58_,X_INTRODUCED_62_,X_INTRODUCED_3_,X_INTRODUCED_7_,X_INTRODUCED_11_,X_INTRODUCED_15_,X_INTRODUCED_19_,X_INTRODUCED_23_,X_INTRODUCED_27_,X_INTRODUCED_31_,X_INTRODUCED_35_,X_INTRODUCED_39_,X_INTRODUCED_43_,X_INTRODUCED_47_,X_INTRODUCED_51_,X_INTRODUCED_55_,X_INTRODUCED_59_,X_INTRODUCED_63_,X_INTRODUCED_4_,X_INTRODUCED_8_,X_INTRODUCED_12_,X_INTRODUCED_16_,X_INTRODUCED_20_,X_INTRODUCED_24_,X_INTRODUCED_28_,X_INTRODUCED_32_,X_INTRODUCED_36_,X_INTRODUCED_40_,X_INTRODUCED_44_,X_INTRODUCED_48_,X_INTRODUCED_52_,X_INTRODUCED_56_,X_INTRODUCED_60_,X_INTRODUCED_64_,X_INTRODUCED_5_,X_INTRODUCED_9_,X_INTRODUCED_13_,X_INTRODUCED_17_,X_INTRODUCED_21_,X_INTRODUCED_25_,X_INTRODUCED_29_,X_INTRODUCED_33_,X_INTRODUCED_37_,X_INTRODUCED_41_,X_INTRODUCED_45_,X_INTRODUCED_49_,X_INTRODUCED_53_,X_INTRODUCED_57_,X_INTRODUCED_61_,X_INTRODUCED_65_];
array [1..9] of var int: X_INTRODUCED_358_ ::var_is_introduced  = [X_INTRODUCED_2_,X_INTRODUCED_6_,X_INTRODUCED_10_,X_INTRODUCED_14_,X_INTRODUCED_66_,X_INTRODUCED_67_,X_INTRODUCED_68_,X_INTRODUCED_69_,X_INTRODUCED_322_];
array [1..9] of var int: X_INTRODUCED_359_ ::var_is_introduced  = [X_INTRODUCED_18_,X_INTRODUCED_22_,X_INTRODUCED_26_,X_INTRODUCED_30_,X_INTRODUCED_70_,X_INTRODUCED_71_,X_INTRODUCED_72_,X_INTRODUCED_73_,X_INTRODUCED_323_];
array [1..9] of var int: X_INTRODUCED_360_ ::var_is_introduced  = [X_INTRODUCED_34_,X_INTRODUCED_38_,X_INTRODUCED_42_,X_INTRODUCED_46_,X_INTRODUCED_74_,X_INTRODUCED_75_,X_INTRODUCED_76_,X_INTRODUCED_77_,X_INTRODUCED_324_];
array [1..9] of var int: X_INTRODUCED_361_ ::var_is_introduced  = [X_INTRODUCED_50_,X_INTRODUCED_54_,X_INTRODUCED_58_,X_INTRODUCED_62_,X_INTRODUCED_78_,X_INTRODUCED_79_,X_INTRODUCED_80_,X_INTRODUCED_81_,X_INTRODUCED_325_];
array [1..9] of var int: X_INTRODUCED_362_ ::var_is_introduced  = [X_INTRODUCED_3_,X_INTRODUCED_7_,X_INTRODUCED_11_,X_INTRODUCED_15_,X_INTRODUCED_82_,X_INTRODUCED_83_,X_INTRODUCED_84_,X_INTRODUCED_85_,X_INTRODUCED_326_];
array [1..9] of var int: X_INTRODUCED_363_ ::var_is_introduced  = [X_INTRODUCED_19_,X_INTRODUCED_23_,X_INTRODUCED_27_,X_INTRODUCED_31_,X_INTRODUCED_86_,X_INTRODUCED_87_,X_INTRODUCED_88_,X_INTRODUCED_89_,X_INTRODUCED_327_];
array [1..9] of var int: X_INTRODUCED_364_ ::var_is_introduced  = [X_INTRODUCED_35_,X_INTRODUCED_39_,X_INTRODUCED_43_,X_INTRODUCED_47_,X_INTRODUCED_90_,X_INTRODUCED_91_,X_INTRODUCED_92_,X_INTRODUCED_93_,X_INTRODUCED_328_];
array [1..9] of var int: X_INTRODUCED_365_ ::var_is_introduced  = [X_INTRODUCED_51_,X_INTRODUCED_55_,X_INTRODUCED_59_,X_INTRODUCED_63_,X_INTRODUCED_94_,X_INTRODUCED_95_,X_INTRODUCED_96_,X_INTRODUCED_97_,X_INTRODUCED_329_];
array [1..9] of var int: X_INTRODUCED_366_ ::var_is_introduced  = [X_INTRODUCED_4_,X_INTRODUCED_8_,X_INTRODUCED_12_,X_INTRODUCED_16_,X_INTRODUCED_98_,X_INTRODUCED_99_,X_INTRODUCED_100_,X_INTRODUCED_101_,X_INTRODUCED_330_];
array [1..9] of var int: X_INTRODUCED_367_ ::var_is_introduced  = [X_INTRODUCED_20_,X_INTRODUCED_24_,X_INTRODUCED_28_,X_INTRODUCED_32_,X_INTRODUCED_102_,X_INTRODUCED_103_,X_INTRODUCED_104_,X_INTRODUCED_105_,X_INTRODUCED_331_];
array [1..9] of var int: X_INTRODUCED_368_ ::var_is_introduced  = [X_INTRODUCED_36_,X_INTRODUCED_40_,X_INTRODUCED_44_,X_INTRODUCED_48_,X_INTRODUCED_106_,X_INTRODUCED_107_,X_INTRODUCED_108_,X_INTRODUCED_109_,X_INTRODUCED_332_];
array [1..9] of var int: X_INTRODUCED_369_ ::var_is_introduced  = [X_INTRODUCED_52_,X_INTRODUCED_56_,X_INTRODUCED_60_,X_INTRODUCED_64_,X_INTRODUCED_110_,X_INTRODUCED_111_,X_INTRODUCED_112_,X_INTRODUCED_113_,X_INTRODUCED_333_];
array [1..9] of var int: X_INTRODUCED_370_ ::var_is_introduced  = [X_INTRODUCED_5_,X_INTRODUCED_9_,X_INTRODUCED_13_,X_INTRODUCED_17_,X_INTRODUCED_114_,X_INTRODUCED_115_,X_INTRODUCED_116_,X_INTRODUCED_117_,X_INTRODUCED_334_];
array [1..9] of var int: X_INTRODUCED_371_ ::var_is_introduced  = [X_INTRODUCED_21_,X_INTRODUCED_25_,X_INTRODUCED_29_,X_INTRODUCED_33_,X_INTRODUCED_118_,X_INTRODUCED_119_,X_INTRODUCED_120_,X_INTRODUCED_121_,X_INTRODUCED_335_];
array [1..9] of var int: X_INTRODUCED_372_ ::var_is_introduced  = [X_INTRODUCED_37_,X_INTRODUCED_41_,X_INTRODUCED_45_,X_INTRODUCED_49_,X_INTRODUCED_122_,X_INTRODUCED_123_,X_INTRODUCED_124_,X_INTRODUCED_125_,X_INTRODUCED_336_];
array [1..9] of var int: X_INTRODUCED_373_ ::var_is_introduced  = [X_INTRODUCED_53_,X_INTRODUCED_57_,X_INTRODUCED_61_,X_INTRODUCED_65_,X_INTRODUCED_126_,X_INTRODUCED_127_,X_INTRODUCED_128_,X_INTRODUCED_129_,X_INTRODUCED_337_];
array [1..9] of var int: X_INTRODUCED_374_ ::var_is_introduced  = [X_INTRODUCED_66_,X_INTRODUCED_70_,X_INTRODUCED_74_,X_INTRODUCED_78_,X_INTRODUCED_130_,X_INTRODUCED_131_,X_INTRODUCED_132_,X_INTRODUCED_133_,X_INTRODUCED_338_];
array [1..9] of var int: X_INTRODUCED_375_ ::var_is_introduced  = [X_INTRODUCED_82_,X_INTRODUCED_86_,X_INTRODUCED_90_,X_INTRODUCED_94_,X_INTRODUCED_134_,X_INTRODUCED_135_,X_INTRODUCED_136_,X_INTRODUCED_137_,X_INTRODUCED_339_];
array [1..9] of var int: X_INTRODUCED_376_ ::var_is_introduced  = [X_INTRODUCED_98_,X_INTRODUCED_102_,X_INTRODUCED_106_,X_INTRODUCED_110_,X_INTRODUCED_138_,X_INTRODUCED_139_,X_INTRODUCED_140_,X_INTRODUCED_141_,X_INTRODUCED_340_];
array [1..9] of var int: X_INTRODUCED_377_ ::var_is_introduced  = [X_INTRODUCED_114_,X_INTRODUCED_118_,X_INTRODUCED_122_,X_INTRODUCED_126_,X_INTRODUCED_142_,X_INTRODUCED_143_,X_INTRODUCED_144_,X_INTRODUCED_145_,X_INTRODUCED_341_];
array [1..9] of var int: X_INTRODUCED_378_ ::var_is_introduced  = [X_INTRODUCED_67_,X_INTRODUCED_71_,X_INTRODUCED_75_,X_INTRODUCED_79_,X_INTRODUCED_146_,X_INTRODUCED_147_,X_INTRODUCED_148_,X_INTRODUCED_149_,X_INTRODUCED_342_];
array [1..9] of var int: X_INTRODUCED_379_ ::var_is_introduced  = [X_INTRODUCED_83_,X_INTRODUCED_87_,X_INTRODUCED_91_,X_INTRODUCED_95_,X_INTRODUCED_150_,X_INTRODUCED_151_,X_INTRODUCED_152_,X_INTRODUCED_153_,X_INTRODUCED_343_];
array [1..9] of var int: X_INTRODUCED_380_ ::var_is_introduced  = [X_INTRODUCED_99_,X_INTRODUCED_103_,X_INTRODUCED_107_,X_INTRODUCED_111_,X_INTRODUCED_154_,X_INTRODUCED_155_,X_INTRODUCED_156_,X_INTRODUCED_157_,X_INTRODUCED_344_];
array [1..9] of var int: X_INTRODUCED_381_ ::var_is_introduced  = [X_INTRODUCED_115_,X_INTRODUCED_119_,X_INTRODUCED_123_,X_INTRODUCED_127_,X_INTRODUCED_158_,X_INTRODUCED_159_,X_INTRODUCED_160_,X_INTRODUCED_161_,X_INTRODUCED_345_];
array [1..9] of var int: X_INTRODUCED_382_ ::var_is_introduced  = [X_INTRODUCED_68_,X_INTRODUCED_72_,X_INTRODUCED_76_,X_INTRODUCED_80_,X_INTRODUCED_162_,X_INTRODUCED_163_,X_INTRODUCED_164_,X_INTRODUCED_165_,X_INTRODUCED_346_];
array [1..9] of var int: X_INTRODUCED_383_ ::var_is_introduced  = [X_INTRODUCED_84_,X_INTRODUCED_88_,X_INTRODUCED_92_,X_INTRODUCED_96_,X_INTRODUCED_166_,X_INTRODUCED_167_,X_INTRODUCED_168_,X_INTRODUCED_169_,X_INTRODUCED_347_];
array [1..9] of var int: X_INTRODUCED_384_ ::var_is_introduced  = [X_INTRODUCED_100_,X_INTRODUCED_104_,X_INTRODUCED_108_,X_INTRODUCED_112_,X_INTRODUCED_170_,X_INTRODUCED_171_,X_INTRODUCED_172_,X_INTRODUCED_173_,X_INTRODUCED_348_];
array [1..9] of var int: X_INTRODUCED_385_ ::var_is_introduced  = [X_INTRODUCED_116_,X_INTRODUCED_120_,X_INTRODUCED_124_,X_INTRODUCED_128_,X_INTRODUCED_174_,X_INTRODUCED_175_,X_INTRODUCED_176_,X_INTRODUCED_177_,X_INTRODUCED_349_];
array [1..9] of var int: X_INTRODUCED_386_ ::var_is_introduced  = [X_INTRODUCED_69_,X_INTRODUCED_73_,X_INTRODUCED_77_,X_INTRODUCED_81_,X_INTRODUCED_178_,X_INTRODUCED_179_,X_INTRODUCED_180_,X_INTRODUCED_181_,X_INTRODUCED_350_];
array [1..9] of var int: X_INTRODUCED_387_ ::var_is_introduced  = [X_INTRODUCED_85_,X_INTRODUCED_89_,X_INTRODUCED_93_,X_INTRODUCED_97_,X_INTRODUCED_182_,X_INTRODUCED_183_,X_INTRODUCED_184_,X_INTRODUCED_185_,X_INTRODUCED_351_];
array [1..9] of var int: X_INTRODUCED_388_ ::var_is_introduced  = [X_INTRODUCED_101_,X_INTRODUCED_105_,X_INTRODUCED_109_,X_INTRODUCED_113_,X_INTRODUCED_186_,X_INTRODUCED_187_,X_INTRODUCED_188_,X_INTRODUCED_189_,X_INTRODUCED_352_];
array [1..9] of var int: X_INTRODUCED_389_ ::var_is_introduced  = [X_INTRODUCED_117_,X_INTRODUCED_121_,X_INTRODUCED_125_,X_INTRODUCED_129_,X_INTRODUCED_190_,X_INTRODUCED_191_,X_INTRODUCED_192_,X_INTRODUCED_193_,X_INTRODUCED_353_];
array [1..33] of var int: X_INTRODUCED_392_ ::var_is_introduced  = [objective,X_INTRODUCED_322_,X_INTRODUCED_323_,X_INTRODUCED_324_,X_INTRODUCED_325_,X_INTRODUCED_326_,X_INTRODUCED_327_,X_INTRODUCED_328_,X_INTRODUCED_329_,X_INTRODUCED_330_,X_INTRODUCED_331_,X_INTRODUCED_332_,X_INTRODUCED_333_,X_INTRODUCED_334_,X_INTRODUCED_335_,X_INTRODUCED_336_,X_INTRODUCED_337_,X_INTRODUCED_338_,X_INTRODUCED_339_,X_INTRODUCED_340_,X_INTRODUCED_341_,X_INTRODUCED_342_,X_INTRODUCED_343_,X_INTRODUCED_344_,X_INTRODUCED_345_,X_INTRODUCED_346_,X_INTRODUCED_347_,X_INTRODUCED_348_,X_INTRODUCED_349_,X_INTRODUCED_350_,X_INTRODUCED_351_,X_INTRODUCED_352_,X_INTRODUCED_353_];
constraint fzn_table_int(X_INTRODUCED_358_,X_INTRODUCED_0_);
constraint fzn_table_int(X_INTRODUCED_359_,X_INTRODUCED_0_);
constraint fzn_table_int(X_INTRODUCED_360_,X_INTRODUCED_0_);
constraint fzn_table_int(X_INTRODUCED_361_,X_INTRODUCED_0_);
constraint fzn_table_int(X_INTRODUCED_362_,X_INTRODUCED_0_);
constraint fzn_table_int(X_INTRODUCED_363_,X_INTRODUCED_0_);
constraint fzn_table_int(X_INTRODUCED_364_,X_INTRODUCED_0_);
constraint fzn_table_int(X_INTRODUCED_365_,X_INTRODUCED_0_);
constraint fzn_table_int(X_INTRODUCED_366_,X_INTRODUCED_0_);
constraint fzn_table_int(X_INTRODUCED_367_,X_INTRODUCED_0_);
constraint fzn_table_int(X_INTRODUCED_368_,X_INTRODUCED_0_);
constraint fzn_table_int(X_INTRODUCED_369_,X_INTRODUCED_0_);
constraint fzn_table_int(X_INTRODUCED_370_,X_INTRODUCED_0_);
constraint fzn_table_int(X_INTRODUCED_371_,X_INTRODUCED_0_);
constraint fzn_table_int(X_INTRODUCED_372_,X_INTRODUCED_0_);
constraint fzn_table_int(X_INTRODUCED_373_,X_INTRODUCED_0_);
constraint fzn_table_int(X_INTRODUCED_374_,X_INTRODUCED_0_);
constraint fzn_table_int(X_INTRODUCED_375_,X_INTRODUCED_0_);
constraint fzn_table_int(X_INTRODUCED_376_,X_INTRODUCED_0_);
constraint fzn_table_int(X_INTRODUCED_377_,X_INTRODUCED_0_);
constraint fzn_table_int(X_INTRODUCED_378_,X_INTRODUCED_0_);
constraint fzn_table_int(X_INTRODUCED_379_,X_INTRODUCED_0_);
constraint fzn_table_int(X_INTRODUCED_380_,X_INTRODUCED_0_);
constraint fzn_table_int(X_INTRODUCED_381_,X_INTRODUCED_0_);
constraint fzn_table_int(X_INTRODUCED_382_,X_INTRODUCED_0_);
constraint fzn_table_int(X_INTRODUCED_383_,X_INTRODUCED_0_);
constraint fzn_table_int(X_INTRODUCED_384_,X_INTRODUCED_0_);
constraint fzn_table_int(X_INTRODUCED_385_,X_INTRODUCED_0_);
constraint fzn_table_int(X_INTRODUCED_386_,X_INTRODUCED_0_);
constraint fzn_table_int(X_INTRODUCED_387_,X_INTRODUCED_0_);
constraint fzn_table_int(X_INTRODUCED_388_,X_INTRODUCED_0_);
constraint fzn_table_int(X_INTRODUCED_389_,X_INTRODUCED_0_);
constraint int_lin_eq(X_INTRODUCED_393_,X_INTRODUCED_392_,0):: defines_var(objective);
solve :: seq_search([int_search(X_INTRODUCED_356_,input_order,indomain_min,complete),int_search(prb,smallest,indomain_min,complete)]) minimize objective;
